p cnf 322 784
1 2 3 4 0
-1 -2 0
-1 -3 0
-2 -3 0
-1 -4 0
-2 -4 0
-3 -4 0
5 6 7 8 0
-5 -6 0
-5 -7 0
-6 -7 0
-5 -8 0
-6 -8 0
-7 -8 0
9 10 11 12 0
-9 -10 0
-9 -11 0
-10 -11 0
-9 -12 0
-10 -12 0
-11 -12 0
13 14 15 16 0
-13 -14 0
-13 -15 0
-14 -15 0
-13 -16 0
-14 -16 0
-15 -16 0
17 18 19 20 0
-17 -18 0
-17 -19 0
-18 -19 0
-17 -20 0
-18 -20 0
-19 -20 0
21 22 23 24 0
-21 -22 0
-21 -23 0
-22 -23 0
-21 -24 0
-22 -24 0
-23 -24 0
25 26 27 28 0
-25 -26 0
-25 -27 0
-26 -27 0
-25 -28 0
-26 -28 0
-27 -28 0
29 30 31 32 0
-29 -30 0
-29 -31 0
-30 -31 0
-29 -32 0
-30 -32 0
-31 -32 0
33 34 35 36 0
-33 -34 0
-33 -35 0
-34 -35 0
-33 -36 0
-34 -36 0
-35 -36 0
37 38 39 40 0
-37 -38 0
-37 -39 0
-38 -39 0
-37 -40 0
-38 -40 0
-39 -40 0
41 42 43 44 0
-41 -42 0
-41 -43 0
-42 -43 0
-41 -44 0
-42 -44 0
-43 -44 0
45 46 47 48 0
-45 -46 0
-45 -47 0
-46 -47 0
-45 -48 0
-46 -48 0
-47 -48 0
49 50 51 52 0
-49 -50 0
-49 -51 0
-50 -51 0
-49 -52 0
-50 -52 0
-51 -52 0
53 54 55 56 0
-53 -54 0
-53 -55 0
-54 -55 0
-53 -56 0
-54 -56 0
-55 -56 0
57 58 59 60 0
-57 -58 0
-57 -59 0
-58 -59 0
-57 -60 0
-58 -60 0
-59 -60 0
61 62 63 64 0
-61 -62 0
-61 -63 0
-62 -63 0
-61 -64 0
-62 -64 0
-63 -64 0
65 66 67 68 0
-65 -66 0
-65 -67 0
-66 -67 0
-65 -68 0
-66 -68 0
-67 -68 0
69 70 71 72 0
-69 -70 0
-69 -71 0
-70 -71 0
-69 -72 0
-70 -72 0
-71 -72 0
73 74 75 76 0
-73 -74 0
-73 -75 0
-74 -75 0
-73 -76 0
-74 -76 0
-75 -76 0
77 78 79 80 0
-77 -78 0
-77 -79 0
-78 -79 0
-77 -80 0
-78 -80 0
-79 -80 0
81 82 83 84 0
-81 -82 0
-81 -83 0
-82 -83 0
-81 -84 0
-82 -84 0
-83 -84 0
85 86 87 88 0
-85 -86 0
-85 -87 0
-86 -87 0
-85 -88 0
-86 -88 0
-87 -88 0
89 90 91 92 0
-89 -90 0
-89 -91 0
-90 -91 0
-89 -92 0
-90 -92 0
-91 -92 0
93 94 95 96 0
-93 -94 0
-93 -95 0
-94 -95 0
-93 -96 0
-94 -96 0
-95 -96 0
-101 5 17 0
-101 -5 -17 0
-102 6 18 0
-102 -6 -18 0
-103 7 19 0
-103 -7 -19 0
-104 8 20 0
-104 -8 -20 0
-105 9 21 0
-105 -9 -21 0
-106 10 22 0
-106 -10 -22 0
-107 11 23 0
-107 -11 -23 0
-108 12 24 0
-108 -12 -24 0
101 102 103 104 105 106 107 108 0
-109 1 25 0
-109 -1 -25 0
-110 2 26 0
-110 -2 -26 0
-111 3 27 0
-111 -3 -27 0
-112 4 28 0
-112 -4 -28 0
-117 9 33 0
-117 -9 -33 0
-118 10 34 0
-118 -10 -34 0
-119 11 35 0
-119 -11 -35 0
-120 12 36 0
-120 -12 -36 0
109 110 111 112 117 118 119 120 0
-121 1 49 0
-121 -1 -49 0
-122 2 50 0
-122 -2 -50 0
-123 3 51 0
-123 -3 -51 0
-124 4 52 0
-124 -4 -52 0
-125 5 53 0
-125 -5 -53 0
-126 6 54 0
-126 -6 -54 0
-127 7 55 0
-127 -7 -55 0
-128 8 56 0
-128 -8 -56 0
121 122 123 124 125 126 127 128 0
-133 13 37 0
-133 -13 -37 0
-134 14 38 0
-134 -14 -38 0
-135 15 39 0
-135 -15 -39 0
-136 16 40 0
-136 -16 -40 0
-141 21 45 0
-141 -21 -45 0
-142 22 46 0
-142 -22 -46 0
-143 23 47 0
-143 -23 -47 0
-144 24 48 0
-144 -24 -48 0
133 134 135 136 141 142 143 144 0
-145 13 61 0
-145 -13 -61 0
-146 14 62 0
-146 -14 -62 0
-147 15 63 0
-147 -15 -63 0
-148 16 64 0
-148 -16 -64 0
-149 17 65 0
-149 -17 -65 0
-150 18 66 0
-150 -18 -66 0
-151 19 67 0
-151 -19 -67 0
-152 20 68 0
-152 -20 -68 0
145 146 147 148 149 150 151 152 0
-161 29 41 0
-161 -29 -41 0
-162 30 42 0
-162 -30 -42 0
-163 31 43 0
-163 -31 -43 0
-164 32 44 0
-164 -32 -44 0
-165 33 45 0
-165 -33 -45 0
-166 34 46 0
-166 -34 -46 0
-167 35 47 0
-167 -35 -47 0
-168 36 48 0
-168 -36 -48 0
161 162 163 164 165 166 167 168 0
-169 25 73 0
-169 -25 -73 0
-170 26 74 0
-170 -26 -74 0
-171 27 75 0
-171 -27 -75 0
-172 28 76 0
-172 -28 -76 0
-173 29 77 0
-173 -29 -77 0
-174 30 78 0
-174 -30 -78 0
-175 31 79 0
-175 -31 -79 0
-176 32 80 0
-176 -32 -80 0
169 170 171 172 173 174 175 176 0
-181 37 85 0
-181 -37 -85 0
-182 38 86 0
-182 -38 -86 0
-183 39 87 0
-183 -39 -87 0
-184 40 88 0
-184 -40 -88 0
-185 41 89 0
-185 -41 -89 0
-186 42 90 0
-186 -42 -90 0
-187 43 91 0
-187 -43 -91 0
-188 44 92 0
-188 -44 -92 0
181 182 183 184 185 186 187 188 0
-197 53 65 0
-197 -53 -65 0
-198 54 66 0
-198 -54 -66 0
-199 55 67 0
-199 -55 -67 0
-200 56 68 0
-200 -56 -68 0
-201 57 69 0
-201 -57 -69 0
-202 58 70 0
-202 -58 -70 0
-203 59 71 0
-203 -59 -71 0
-204 60 72 0
-204 -60 -72 0
197 198 199 200 201 202 203 204 0
-205 49 73 0
-205 -49 -73 0
-206 50 74 0
-206 -50 -74 0
-207 51 75 0
-207 -51 -75 0
-208 52 76 0
-208 -52 -76 0
-213 57 81 0
-213 -57 -81 0
-214 58 82 0
-214 -58 -82 0
-215 59 83 0
-215 -59 -83 0
-216 60 84 0
-216 -60 -84 0
205 206 207 208 213 214 215 216 0
-217 61 85 0
-217 -61 -85 0
-218 62 86 0
-218 -62 -86 0
-219 63 87 0
-219 -63 -87 0
-220 64 88 0
-220 -64 -88 0
-225 69 93 0
-225 -69 -93 0
-226 70 94 0
-226 -70 -94 0
-227 71 95 0
-227 -71 -95 0
-228 72 96 0
-228 -72 -96 0
217 218 219 220 225 226 227 228 0
-233 77 89 0
-233 -77 -89 0
-234 78 90 0
-234 -78 -90 0
-235 79 91 0
-235 -79 -91 0
-236 80 92 0
-236 -80 -92 0
-237 81 93 0
-237 -81 -93 0
-238 82 94 0
-238 -82 -94 0
-239 83 95 0
-239 -83 -95 0
-240 84 96 0
-240 -84 -96 0
233 234 235 236 237 238 239 240 0
-241 1 -13 0
-241 -1 13 0
-241 2 -14 0
-241 -2 14 0
-241 3 -15 0
-241 -3 15 0
-241 4 -16 0
-241 -4 16 0
241 0
-245 5 -29 0
-245 -5 29 0
-245 6 -30 0
-245 -6 30 0
-245 7 -31 0
-245 -7 31 0
-245 8 -32 0
-245 -8 32 0
245 0
-247 1 -37 0
-247 -1 37 0
-247 2 -38 0
-247 -2 38 0
-247 3 -39 0
-247 -3 39 0
-247 4 -40 0
-247 -4 40 0
-248 5 -41 0
-248 -5 41 0
-248 6 -42 0
-248 -6 42 0
-248 7 -43 0
-248 -7 43 0
-248 8 -44 0
-248 -8 44 0
247 248 0
-252 9 -57 0
-252 -9 57 0
-252 10 -58 0
-252 -10 58 0
-252 11 -59 0
-252 -11 59 0
-252 12 -60 0
-252 -12 60 0
252 0
-253 1 -61 0
-253 -1 61 0
-253 2 -62 0
-253 -2 62 0
-253 3 -63 0
-253 -3 63 0
-253 4 -64 0
-253 -4 64 0
-255 9 -69 0
-255 -9 69 0
-255 10 -70 0
-255 -10 70 0
-255 11 -71 0
-255 -11 71 0
-255 12 -72 0
-255 -12 72 0
253 255 0
-257 5 -77 0
-257 -5 77 0
-257 6 -78 0
-257 -6 78 0
-257 7 -79 0
-257 -7 79 0
-257 8 -80 0
-257 -8 80 0
-258 9 -81 0
-258 -9 81 0
-258 10 -82 0
-258 -10 82 0
-258 11 -83 0
-258 -11 83 0
-258 12 -84 0
-258 -12 84 0
257 258 0
-259 1 -85 0
-259 -1 85 0
-259 2 -86 0
-259 -2 86 0
-259 3 -87 0
-259 -3 87 0
-259 4 -88 0
-259 -4 88 0
-260 5 -89 0
-260 -5 89 0
-260 6 -90 0
-260 -6 90 0
-260 7 -91 0
-260 -7 91 0
-260 8 -92 0
-260 -8 92 0
-261 9 -93 0
-261 -9 93 0
-261 10 -94 0
-261 -10 94 0
-261 11 -95 0
-261 -11 95 0
-261 12 -96 0
-261 -12 96 0
259 260 261 0
-262 13 -25 0
-262 -13 25 0
-262 14 -26 0
-262 -14 26 0
-262 15 -27 0
-262 -15 27 0
-262 16 -28 0
-262 -16 28 0
-263 17 -29 0
-263 -17 29 0
-263 18 -30 0
-263 -18 30 0
-263 19 -31 0
-263 -19 31 0
-263 20 -32 0
-263 -20 32 0
262 263 0
-266 17 -41 0
-266 -17 41 0
-266 18 -42 0
-266 -18 42 0
-266 19 -43 0
-266 -19 43 0
-266 20 -44 0
-266 -20 44 0
266 0
-268 13 -49 0
-268 -13 49 0
-268 14 -50 0
-268 -14 50 0
-268 15 -51 0
-268 -15 51 0
-268 16 -52 0
-268 -16 52 0
-270 21 -57 0
-270 -21 57 0
-270 22 -58 0
-270 -22 58 0
-270 23 -59 0
-270 -23 59 0
-270 24 -60 0
-270 -24 60 0
268 270 0
-273 21 -69 0
-273 -21 69 0
-273 22 -70 0
-273 -22 70 0
-273 23 -71 0
-273 -23 71 0
-273 24 -72 0
-273 -24 72 0
273 0
-274 13 -73 0
-274 -13 73 0
-274 14 -74 0
-274 -14 74 0
-274 15 -75 0
-274 -15 75 0
-274 16 -76 0
-274 -16 76 0
-275 17 -77 0
-275 -17 77 0
-275 18 -78 0
-275 -18 78 0
-275 19 -79 0
-275 -19 79 0
-275 20 -80 0
-275 -20 80 0
-276 21 -81 0
-276 -21 81 0
-276 22 -82 0
-276 -22 82 0
-276 23 -83 0
-276 -23 83 0
-276 24 -84 0
-276 -24 84 0
274 275 276 0
-278 17 -89 0
-278 -17 89 0
-278 18 -90 0
-278 -18 90 0
-278 19 -91 0
-278 -19 91 0
-278 20 -92 0
-278 -20 92 0
-279 21 -93 0
-279 -21 93 0
-279 22 -94 0
-279 -22 94 0
-279 23 -95 0
-279 -23 95 0
-279 24 -96 0
-279 -24 96 0
278 279 0
-280 25 -37 0
-280 -25 37 0
-280 26 -38 0
-280 -26 38 0
-280 27 -39 0
-280 -27 39 0
-280 28 -40 0
-280 -28 40 0
280 0
-284 29 -53 0
-284 -29 53 0
-284 30 -54 0
-284 -30 54 0
-284 31 -55 0
-284 -31 55 0
-284 32 -56 0
-284 -32 56 0
-285 33 -57 0
-285 -33 57 0
-285 34 -58 0
-285 -34 58 0
-285 35 -59 0
-285 -35 59 0
-285 36 -60 0
-285 -36 60 0
284 285 0
-286 25 -61 0
-286 -25 61 0
-286 26 -62 0
-286 -26 62 0
-286 27 -63 0
-286 -27 63 0
-286 28 -64 0
-286 -28 64 0
-287 29 -65 0
-287 -29 65 0
-287 30 -66 0
-287 -30 66 0
-287 31 -67 0
-287 -31 67 0
-287 32 -68 0
-287 -32 68 0
-288 33 -69 0
-288 -33 69 0
-288 34 -70 0
-288 -34 70 0
-288 35 -71 0
-288 -35 71 0
-288 36 -72 0
-288 -36 72 0
286 287 288 0
-291 33 -81 0
-291 -33 81 0
-291 34 -82 0
-291 -34 82 0
-291 35 -83 0
-291 -35 83 0
-291 36 -84 0
-291 -36 84 0
291 0
-292 25 -85 0
-292 -25 85 0
-292 26 -86 0
-292 -26 86 0
-292 27 -87 0
-292 -27 87 0
-292 28 -88 0
-292 -28 88 0
-294 33 -93 0
-294 -33 93 0
-294 34 -94 0
-294 -34 94 0
-294 35 -95 0
-294 -35 95 0
-294 36 -96 0
-294 -36 96 0
292 294 0
-295 37 -49 0
-295 -37 49 0
-295 38 -50 0
-295 -38 50 0
-295 39 -51 0
-295 -39 51 0
-295 40 -52 0
-295 -40 52 0
-296 41 -53 0
-296 -41 53 0
-296 42 -54 0
-296 -42 54 0
-296 43 -55 0
-296 -43 55 0
-296 44 -56 0
-296 -44 56 0
-297 45 -57 0
-297 -45 57 0
-297 46 -58 0
-297 -46 58 0
-297 47 -59 0
-297 -47 59 0
-297 48 -60 0
-297 -48 60 0
295 296 297 0
-299 41 -65 0
-299 -41 65 0
-299 42 -66 0
-299 -42 66 0
-299 43 -67 0
-299 -43 67 0
-299 44 -68 0
-299 -44 68 0
-300 45 -69 0
-300 -45 69 0
-300 46 -70 0
-300 -46 70 0
-300 47 -71 0
-300 -47 71 0
-300 48 -72 0
-300 -48 72 0
299 300 0
-301 37 -73 0
-301 -37 73 0
-301 38 -74 0
-301 -38 74 0
-301 39 -75 0
-301 -39 75 0
-301 40 -76 0
-301 -40 76 0
-303 45 -81 0
-303 -45 81 0
-303 46 -82 0
-303 -46 82 0
-303 47 -83 0
-303 -47 83 0
-303 48 -84 0
-303 -48 84 0
301 303 0
-306 45 -93 0
-306 -45 93 0
-306 46 -94 0
-306 -46 94 0
-306 47 -95 0
-306 -47 95 0
-306 48 -96 0
-306 -48 96 0
306 0
-307 49 -61 0
-307 -49 61 0
-307 50 -62 0
-307 -50 62 0
-307 51 -63 0
-307 -51 63 0
-307 52 -64 0
-307 -52 64 0
307 0
-311 53 -77 0
-311 -53 77 0
-311 54 -78 0
-311 -54 78 0
-311 55 -79 0
-311 -55 79 0
-311 56 -80 0
-311 -56 80 0
311 0
-313 49 -85 0
-313 -49 85 0
-313 50 -86 0
-313 -50 86 0
-313 51 -87 0
-313 -51 87 0
-313 52 -88 0
-313 -52 88 0
-314 53 -89 0
-314 -53 89 0
-314 54 -90 0
-314 -54 90 0
-314 55 -91 0
-314 -55 91 0
-314 56 -92 0
-314 -56 92 0
313 314 0
-316 61 -73 0
-316 -61 73 0
-316 62 -74 0
-316 -62 74 0
-316 63 -75 0
-316 -63 75 0
-316 64 -76 0
-316 -64 76 0
-317 65 -77 0
-317 -65 77 0
-317 66 -78 0
-317 -66 78 0
-317 67 -79 0
-317 -67 79 0
-317 68 -80 0
-317 -68 80 0
316 317 0
-320 65 -89 0
-320 -65 89 0
-320 66 -90 0
-320 -66 90 0
-320 67 -91 0
-320 -67 91 0
-320 68 -92 0
-320 -68 92 0
320 0
-322 73 -85 0
-322 -73 85 0
-322 74 -86 0
-322 -74 86 0
-322 75 -87 0
-322 -75 87 0
-322 76 -88 0
-322 -76 88 0
322 0
